rcpsp/heur_output_bi_constraints/Log=10/heurj120.txt
encoding rcpsp/j120.sm/j12017_3.sm nv: 6670350 nc: 13514578 enctime: 108.26
encoding rcpsp/j120.sm/j12017_3.sm nv: 1366875 nc: 2766008 enctime: 17.03
c File: j12017_3.smnaivebi10.wcnf
c timeout
c final solution cost: 123
c CPU time: 73.325877
s UNKNOWN

c File: j12017_3.smbi10.wcnf
c timeout
c final solution cost: 118
c CPU time: 62.150303
s UNKNOWN


rcpsp/heur_output_bi_constraints/Log=10/heurj120.txt
encoding rcpsp/j120.sm/j12017_4.sm nv: 7375148 nc: 14993537 enctime: 126.23
encoding rcpsp/j120.sm/j12017_4.sm nv: 1524774 nc: 3095865 enctime: 19.41
c File: j12017_4.smnaivebi10.wcnf
c timeout
c final solution cost: 169
c CPU time: 75.512553
s UNKNOWN

c File: j12017_4.smbi10.wcnf
c timeout
c final solution cost: 130
c CPU time: 62.430140
s UNKNOWN


rcpsp/heur_output_bi_constraints/Log=10/heurj120.txt
encoding rcpsp/j120.sm/j12017_5.sm nv: 6133560 nc: 12487755 enctime: 103.46
encoding rcpsp/j120.sm/j12017_5.sm nv: 1412520 nc: 2872371 enctime: 20.46
c File: j12017_5.smnaivebi10.wcnf
c timeout
c final solution cost: 143
c CPU time: 73.256397
s UNKNOWN

c File: j12017_5.smbi10.wcnf
c timeout
c CPU time: 61.929853
s UNKNOWN


rcpsp/heur_output_bi_constraints/Log=10/heurj120.txt
encoding rcpsp/j120.sm/j12017_6.sm nv: 5769162 nc: 11746455 enctime: 100.17
encoding rcpsp/j120.sm/j12017_6.sm nv: 1430898 nc: 2909991 enctime: 20.29
c File: j12017_6.smnaivebi10.wcnf
c timeout
c final solution cost: 148
c CPU time: 72.582265
s UNKNOWN

c File: j12017_6.smbi10.wcnf
c timeout
c final solution cost: 150
c CPU time: 62.442957
s UNKNOWN


rcpsp/heur_output_bi_constraints/Log=10/heurj120.txt
encoding rcpsp/j120.sm/j12017_7.sm nv: 6116320 nc: 12495871 enctime: 110.30
encoding rcpsp/j120.sm/j12017_7.sm nv: 1493520 nc: 3047471 enctime: 21.75
c File: j12017_7.smnaivebi10.wcnf
c timeout
c final solution cost: 590
c CPU time: 73.917736
s UNKNOWN

c File: j12017_7.smbi10.wcnf
c timeout
c CPU time: 62.082456
s UNKNOWN


rcpsp/heur_output_bi_constraints/Log=10/heurj120.txt
encoding rcpsp/j120.sm/j12017_8.sm nv: 6054645 nc: 12314362 enctime: 103.25
encoding rcpsp/j120.sm/j12017_8.sm nv: 1386925 nc: 2817394 enctime: 20.05
c File: j12017_8.smnaivebi10.wcnf
c timeout
c final solution cost: 154
c CPU time: 73.194277
s UNKNOWN

c File: j12017_8.smbi10.wcnf
c timeout
c final solution cost: 141
c CPU time: 62.337530
s UNKNOWN


rcpsp/heur_output_bi_constraints/Log=10/heurj120.txt
encoding rcpsp/j120.sm/j12017_9.sm nv: 5677470 nc: 11567304 enctime: 99.65
encoding rcpsp/j120.sm/j12017_9.sm nv: 1388025 nc: 2824596 enctime: 17.40
c File: j12017_9.smnaivebi10.wcnf
c timeout
c final solution cost: 567
c CPU time: 72.708151
s UNKNOWN

c File: j12017_9.smbi10.wcnf
c timeout
c CPU time: 61.925566
s UNKNOWN


rcpsp/heur_output_bi_constraints/Log=10/heurj120.txt
encoding rcpsp/j120.sm/j1201_7.sm nv: 638608 nc: 1572768 enctime: 30.63
encoding rcpsp/j120.sm/j1201_7.sm nv: 124280 nc: 302012 enctime: 1.66
c File: j1201_7.smnaivebi10.wcnf
c timeout
c final solution cost: 105
c CPU time: 66.718249
s UNKNOWN

c File: j1201_7.smbi10.wcnf
c timeout
c final solution cost: 105
c CPU time: 60.343537
s UNKNOWN


rcpsp/heur_output_bi_constraints/Log=10/heurj120.txt
encoding rcpsp/j120.sm/j12018_10.sm nv: 9594120 nc: 19396868 enctime: 156.00
encoding rcpsp/j120.sm/j12018_10.sm nv: 1495554 nc: 3019500 enctime: 19.69
c File: j12018_10.smnaivebi10.wcnf
c timeout
c final solution cost: 112
c CPU time: 78.678747
s UNKNOWN

c File: j12018_10.smbi10.wcnf
c timeout
c final solution cost: 98
c CPU time: 62.259693
s UNKNOWN


rcpsp/heur_output_bi_constraints/Log=10/heurj120.txt
encoding rcpsp/j120.sm/j12018_1.sm nv: 7694844 nc: 15668177 enctime: 137.90
encoding rcpsp/j120.sm/j12018_1.sm nv: 1674192 nc: 3404717 enctime: 21.69
c File: j12018_1.smnaivebi10.wcnf
c timeout
c final solution cost: 179
c CPU time: 76.676565
s UNKNOWN

c File: j12018_1.smbi10.wcnf
c timeout
c final solution cost: 150
c CPU time: 62.814497
s UNKNOWN


rcpsp/heur_output_bi_constraints/Log=10/heurj120.txt
encoding rcpsp/j120.sm/j12018_2.sm nv: 7958639 nc: 16161636 enctime: 138.55
encoding rcpsp/j120.sm/j12018_2.sm nv: 1501630 nc: 3045260 enctime: 19.55
c File: j12018_2.smnaivebi10.wcnf
c timeout
c final solution cost: 128
c CPU time: 76.174514
s UNKNOWN

c File: j12018_2.smbi10.wcnf
c timeout
c final solution cost: 124
c CPU time: 62.313558
s UNKNOWN


rcpsp/heur_output_bi_constraints/Log=10/heurj120.txt
encoding rcpsp/j120.sm/j12018_3.sm nv: 8932440 nc: 18064143 enctime: 146.53
encoding rcpsp/j120.sm/j12018_3.sm nv: 1461672 nc: 2952039 enctime: 19.57
c File: j12018_3.smnaivebi10.wcnf
c timeout
c final solution cost: 127
c CPU time: 78.010985
s UNKNOWN

c File: j12018_3.smbi10.wcnf
c timeout
c CPU time: 61.875943
s UNKNOWN


rcpsp/heur_output_bi_constraints/Log=10/heurj120.txt
encoding rcpsp/j120.sm/j12018_4.sm nv: 8444052 nc: 17086930 enctime: 139.34
encoding rcpsp/j120.sm/j12018_4.sm nv: 1437561 nc: 2905156 enctime: 18.75
c File: j12018_4.smnaivebi10.wcnf
c timeout
c final solution cost: 105
c CPU time: 76.879522
s UNKNOWN

c File: j12018_4.smbi10.wcnf
c timeout
c final solution cost: 105
c CPU time: 62.280847
s UNKNOWN


rcpsp/heur_output_bi_constraints/Log=10/heurj120.txt
encoding rcpsp/j120.sm/j12018_5.sm nv: 8293802 nc: 16817911 enctime: 139.30
encoding rcpsp/j120.sm/j12018_5.sm nv: 1556608 nc: 3152393 enctime: 20.25
c File: j12018_5.smnaivebi10.wcnf
c timeout
c final solution cost: 148
c CPU time: 76.636525
s UNKNOWN

c File: j12018_5.smbi10.wcnf
c timeout
c CPU time: 62.032884
s UNKNOWN


rcpsp/heur_output_bi_constraints/Log=10/heurj120.txt
encoding rcpsp/j120.sm/j12018_6.sm nv: 6200385 nc: 12618075 enctime: 108.96
encoding rcpsp/j120.sm/j12018_6.sm nv: 1422724 nc: 2891785 enctime: 18.13
c File: j12018_6.smnaivebi10.wcnf
c timeout
c final solution cost: 184
c CPU time: 73.221556
s UNKNOWN

c File: j12018_6.smbi10.wcnf
c timeout
c CPU time: 61.944387
s UNKNOWN


rcpsp/heur_output_bi_constraints/Log=10/heurj120.txt
encoding rcpsp/j120.sm/j12018_7.sm nv: 6881838 nc: 13971584 enctime: 117.71
encoding rcpsp/j120.sm/j12018_7.sm nv: 1374237 nc: 2786289 enctime: 17.38
c File: j12018_7.smnaivebi10.wcnf
c timeout
c final solution cost: 124
c CPU time: 74.214999
s UNKNOWN

c File: j12018_7.smbi10.wcnf
c timeout
c CPU time: 61.790146
s UNKNOWN


rcpsp/heur_output_bi_constraints/Log=10/heurj120.txt
encoding rcpsp/j120.sm/j12018_8.sm nv: 7588440 nc: 15371293 enctime: 121.22
encoding rcpsp/j120.sm/j12018_8.sm nv: 1382940 nc: 2797543 enctime: 17.34
c File: j12018_8.smnaivebi10.wcnf
c timeout
c final solution cost: 181
c CPU time: 74.809346
s UNKNOWN

c File: j12018_8.smbi10.wcnf
c timeout
c final solution cost: 111
c CPU time: 62.130622
s UNKNOWN


rcpsp/heur_output_bi_constraints/Log=10/heurj120.txt
encoding rcpsp/j120.sm/j12018_9.sm nv: 9752106 nc: 19708280 enctime: 147.59
encoding rcpsp/j120.sm/j12018_9.sm nv: 1519245 nc: 3066168 enctime: 19.06
c File: j12018_9.smnaivebi10.wcnf
c timeout
c final solution cost: 101
c CPU time: 78.203353
s UNKNOWN

c File: j12018_9.smbi10.wcnf
c timeout
c final solution cost: 95
c CPU time: 62.228949
s UNKNOWN


rcpsp/heur_output_bi_constraints/Log=10/heurj120.txt
encoding rcpsp/j120.sm/j1201_8.sm nv: 578124 nc: 1413888 enctime: 25.89
encoding rcpsp/j120.sm/j1201_8.sm nv: 115443 nc: 278818 enctime: 2.25
c File: j1201_8.smnaivebi10.wcnf
c timeout
c final solution cost: 105
c CPU time: 65.770599
s UNKNOWN

c File: j1201_8.smbi10.wcnf
c timeout
c final solution cost: 107
c CPU time: 60.316996
s UNKNOWN


rcpsp/heur_output_bi_constraints/Log=10/heurj120.txt
encoding rcpsp/j120.sm/j12019_10.sm nv: 11872368 nc: 23947646 enctime: 181.50
encoding rcpsp/j120.sm/j12019_10.sm nv: 1518162 nc: 3057741 enctime: 15.46
c File: j12019_10.smnaivebi10.wcnf
c timeout
c final solution cost: 115
c CPU time: 81.635578
s UNKNOWN

c File: j12019_10.smbi10.wcnf
c optimal
c final solution cost: 88
c CPU time: 3.106927
s OPTIMUM FOUND


rcpsp/heur_output_bi_constraints/Log=10/heurj120.txt
encoding rcpsp/j120.sm/j12019_1.sm nv: 10965642 nc: 22066502 enctime: 159.16
encoding rcpsp/j120.sm/j12019_1.sm nv: 1541496 nc: 3098236 enctime: 18.75
c File: j12019_1.smnaivebi10.wcnf
c timeout
c final solution cost: 178
c CPU time: 78.744872
s UNKNOWN

c File: j12019_1.smbi10.wcnf
c optimal
c final solution cost: 79
c CPU time: 15.638110
s OPTIMUM FOUND


rcpsp/heur_output_bi_constraints/Log=10/heurj120.txt
encoding rcpsp/j120.sm/j12019_2.sm nv: 11988750 nc: 24172557 enctime: 176.45
encoding rcpsp/j120.sm/j12019_2.sm nv: 1546375 nc: 3113517 enctime: 15.29
c File: j12019_2.smnaivebi10.wcnf
c timeout
c final solution cost: 87
c CPU time: 80.925075
s UNKNOWN

c File: j12019_2.smbi10.wcnf
c timeout
c final solution cost: 84
c CPU time: 62.172082
s UNKNOWN


rcpsp/heur_output_bi_constraints/Log=10/heurj120.txt
encoding rcpsp/j120.sm/j12019_3.sm nv: 9590001 nc: 19344002 enctime: 139.44
encoding rcpsp/j120.sm/j12019_3.sm nv: 1376412 nc: 2772437 enctime: 16.93
c File: j12019_3.smnaivebi10.wcnf
c timeout
c final solution cost: 87
c CPU time: 77.560412
s UNKNOWN

c File: j12019_3.smbi10.wcnf
c timeout
c CPU time: 61.659170
s UNKNOWN


rcpsp/heur_output_bi_constraints/Log=10/heurj120.txt
encoding rcpsp/j120.sm/j12019_4.sm nv: 8154685 nc: 16507947 enctime: 123.37
encoding rcpsp/j120.sm/j12019_4.sm nv: 1545495 nc: 3124929 enctime: 18.23
c File: j12019_4.smnaivebi10.wcnf
c timeout
c final solution cost: 177
c CPU time: 75.263087
s UNKNOWN

c File: j12019_4.smbi10.wcnf
c timeout
c final solution cost: 112
c CPU time: 62.239676
s UNKNOWN


rcpsp/heur_output_bi_constraints/Log=10/heurj120.txt
encoding rcpsp/j120.sm/j12019_5.sm nv: 8433762 nc: 17086517 enctime: 125.35
encoding rcpsp/j120.sm/j12019_5.sm nv: 1476534 nc: 2987469 enctime: 17.06
c File: j12019_5.smnaivebi10.wcnf
c timeout
c final solution cost: 112
c CPU time: 76.179029
s UNKNOWN

c File: j12019_5.smbi10.wcnf
c timeout
c final solution cost: 110
c CPU time: 62.178062
s UNKNOWN


rcpsp/heur_output_bi_constraints/Log=10/heurj120.txt
encoding rcpsp/j120.sm/j12019_6.sm nv: 10591038 nc: 21380536 enctime: 152.02
encoding rcpsp/j120.sm/j12019_6.sm nv: 1593342 nc: 3212344 enctime: 19.29
c File: j12019_6.smnaivebi10.wcnf
c timeout
c final solution cost: 99
c CPU time: 78.677646
s UNKNOWN

c File: j12019_6.smbi10.wcnf
c timeout
c final solution cost: 91
c CPU time: 62.258150
s UNKNOWN


rcpsp/heur_output_bi_constraints/Log=10/heurj120.txt
encoding rcpsp/j120.sm/j12019_7.sm nv: 10658250 nc: 21508765 enctime: 153.05
encoding rcpsp/j120.sm/j12019_7.sm nv: 1657950 nc: 3341725 enctime: 19.59
c File: j12019_7.smnaivebi10.wcnf
c timeout
c final solution cost: 104
c CPU time: 78.828135
s UNKNOWN

c File: j12019_7.smbi10.wcnf
c optimal
c final solution cost: 93
c CPU time: 9.230026
s OPTIMUM FOUND


rcpsp/heur_output_bi_constraints/Log=10/heurj120.txt
encoding rcpsp/j120.sm/j12019_8.sm nv: 10305400 nc: 20817981 enctime: 149.49
encoding rcpsp/j120.sm/j12019_8.sm nv: 1485190 nc: 2995977 enctime: 17.73
c File: j12019_8.smnaivebi10.wcnf
c timeout
c final solution cost: 210
c CPU time: 78.619212
s UNKNOWN

c File: j12019_8.smbi10.wcnf
c timeout
c final solution cost: 92
c CPU time: 62.099864
s UNKNOWN


rcpsp/heur_output_bi_constraints/Log=10/heurj120.txt
encoding rcpsp/j120.sm/j12019_9.sm nv: 9436025 nc: 19041053 enctime: 134.24
encoding rcpsp/j120.sm/j12019_9.sm nv: 1394125 nc: 2809293 enctime: 16.27
c File: j12019_9.smnaivebi10.wcnf
c timeout
c final solution cost: 158
c CPU time: 76.919672
s UNKNOWN

c File: j12019_9.smbi10.wcnf
c timeout
c final solution cost: 91
c CPU time: 62.013464
s UNKNOWN


rcpsp/heur_output_bi_constraints/Log=10/heurj120.txt
encoding rcpsp/j120.sm/j1201_9.sm nv: 629726 nc: 1569307 enctime: 28.29
encoding rcpsp/j120.sm/j1201_9.sm nv: 125392 nc: 308472 enctime: 2.36
c File: j1201_9.smnaivebi10.wcnf
c optimal
c final solution cost: 112
c CPU time: 18.862864
s OPTIMUM FOUND

c File: j1201_9.smbi10.wcnf
c optimal
c final solution cost: 112
c CPU time: 1.782077
s OPTIMUM FOUND


rcpsp/heur_output_bi_constraints/Log=10/heurj120.txt
encoding rcpsp/j120.sm/j12020_10.sm nv: 13285166 nc: 26744923 enctime: 183.78
encoding rcpsp/j120.sm/j12020_10.sm nv: 1614984 nc: 3246739 enctime: 20.08
c File: j12020_10.smnaivebi10.wcnf
c timeout
c final solution cost: 77
c CPU time: 82.281856
s UNKNOWN

c File: j12020_10.smbi10.wcnf
c timeout
c final solution cost: 74
c CPU time: 62.174345
s UNKNOWN


rcpsp/heur_output_bi_constraints/Log=10/heurj120.txt
encoding rcpsp/j120.sm/j12020_1.sm nv: 10756326 nc: 21684969 enctime: 152.67
encoding rcpsp/j120.sm/j12020_1.sm nv: 1585659 nc: 3192726 enctime: 18.73
c File: j12020_1.smnaivebi10.wcnf
c timeout
c final solution cost: 86
c CPU time: 78.514856
s UNKNOWN

c File: j12020_1.smbi10.wcnf
c timeout
c final solution cost: 85
c CPU time: 62.186509
s UNKNOWN


rcpsp/heur_output_bi_constraints/Log=10/heurj120.txt
encoding rcpsp/j120.sm/j12020_2.sm nv: 10539540 nc: 21255084 enctime: 150.96
encoding rcpsp/j120.sm/j12020_2.sm nv: 1548993 nc: 3119728 enctime: 18.32
c File: j12020_2.smnaivebi10.wcnf
c timeout
c final solution cost: 120
c CPU time: 78.507437
s UNKNOWN

c File: j12020_2.smbi10.wcnf
c optimal
c final solution cost: 84
c CPU time: 37.279043
s OPTIMUM FOUND


rcpsp/heur_output_bi_constraints/Log=10/heurj120.txt
encoding rcpsp/j120.sm/j12020_3.sm nv: 13290312 nc: 26790349 enctime: 188.54
encoding rcpsp/j120.sm/j12020_3.sm nv: 1575560 nc: 3171245 enctime: 19.37
c File: j12020_3.smnaivebi10.wcnf
c timeout
c final solution cost: 82
c CPU time: 82.682236
s UNKNOWN

c File: j12020_3.smbi10.wcnf
c timeout
c final solution cost: 80
c CPU time: 62.178653
s UNKNOWN


rcpsp/heur_output_bi_constraints/Log=10/heurj120.txt
encoding rcpsp/j120.sm/j12020_4.sm nv: 11445696 nc: 23032314 enctime: 160.91
encoding rcpsp/j120.sm/j12020_4.sm nv: 1678464 nc: 3373681 enctime: 15.87
c File: j12020_4.smnaivebi10.wcnf
c optimal
c final solution cost: 89
c CPU time: 33.890317
s OPTIMUM FOUND

c File: j12020_4.smbi10.wcnf
c optimal
c final solution cost: 89
c CPU time: 4.158741
s OPTIMUM FOUND


rcpsp/heur_output_bi_constraints/Log=10/heurj120.txt
encoding rcpsp/j120.sm/j12020_5.sm nv: 12602646 nc: 25305521 enctime: 170.93
encoding rcpsp/j120.sm/j12020_5.sm nv: 1448580 nc: 2905220 enctime: 17.83
c File: j12020_5.smnaivebi10.wcnf
c optimal
c final solution cost: 69
c CPU time: 34.531552
s OPTIMUM FOUND

c File: j12020_5.smbi10.wcnf
c optimal
c final solution cost: 69
c CPU time: 2.820047
s OPTIMUM FOUND


rcpsp/heur_output_bi_constraints/Log=10/heurj120.txt
encoding rcpsp/j120.sm/j12020_6.sm nv: 11676126 nc: 23444354 enctime: 160.33
encoding rcpsp/j120.sm/j12020_6.sm nv: 1623314 nc: 3255976 enctime: 19.57
c File: j12020_6.smnaivebi10.wcnf
c optimal
c final solution cost: 80
c CPU time: 30.079167
s OPTIMUM FOUND

c File: j12020_6.smbi10.wcnf
c optimal
c final solution cost: 80
c CPU time: 3.941870
s OPTIMUM FOUND


rcpsp/heur_output_bi_constraints/Log=10/heurj120.txt
encoding rcpsp/j120.sm/j12020_7.sm nv: 11280967 nc: 22668622 enctime: 153.86
encoding rcpsp/j120.sm/j12020_7.sm nv: 1544306 nc: 3099655 enctime: 14.68
c File: j12020_7.smnaivebi10.wcnf
c optimal
c final solution cost: 81
c CPU time: 30.801131
s OPTIMUM FOUND

c File: j12020_7.smbi10.wcnf
c optimal
c final solution cost: 81
c CPU time: 2.776972
s OPTIMUM FOUND


rcpsp/heur_output_bi_constraints/Log=10/heurj120.txt
encoding rcpsp/j120.sm/j12020_8.sm nv: 9535078 nc: 19278136 enctime: 136.31
encoding rcpsp/j120.sm/j12020_8.sm nv: 1598611 nc: 3227926 enctime: 18.11
c File: j12020_8.smnaivebi10.wcnf
c timeout
c final solution cost: 114
c CPU time: 77.674365
s UNKNOWN

c File: j12020_8.smbi10.wcnf
c optimal
c final solution cost: 107
c CPU time: 38.422706
s OPTIMUM FOUND


rcpsp/heur_output_bi_constraints/Log=10/heurj120.txt
encoding rcpsp/j120.sm/j12020_9.sm nv: 17914050 nc: 35984618 enctime: 238.19
encoding rcpsp/j120.sm/j12020_9.sm nv: 2023350 nc: 4059606 enctime: 24.99
c File: j12020_9.smnaivebi10.wcnf
c optimal
c final solution cost: 80
c CPU time: 46.353888
s OPTIMUM FOUND

c File: j12020_9.smbi10.wcnf
c optimal
c final solution cost: 80
c CPU time: 3.710999
s OPTIMUM FOUND


